p tw 64 73
1 2
2 13
3 4
4 5
5 6
6 7
7 8
8 9
9 10
10 11
10 25
11 12
12 14
13 24
14 15
15 16
16 17
17 18
18 19
18 60
19 20
19 60
20 21
21 22
22 23
23 62
24 35
24 46
25 26
26 27
27 28
28 29
29 30
29 37
30 31
31 32
31 33
32 60
33 34
34 36
35 60
36 28
37 38
38 39
38 41
39 40
40 41
40 45
41 42
42 43
43 44
44 60
45 47
46 57
47 48
48 49
49 50
50 51
50 56
51 52
52 53
52 56
53 54
54 55
55 49
56 58
57 62
58 59
59 60
60 61
62 63
63 64
64 3
